min: 14 x1_1 + 16 x1_2 + 52 x1_3 + 54 x1_4 + 92 x1_5 + 39 x1_6 + 89 x2_1 + 8 x2_2 + 19 x2_3 + 39 x2_4 + 50 x2_5 + 68 x2_6 + 78 x3_1 + 17 x3_2 + 84 x3_3 + 50 x3_4 + 31 x3_5 + 24 x3_6 + 51 x4_1 + 100 x4_2 + 33 x4_3 + 7 x4_4 + 36 x4_5 + 11 x4_6 + 46 x5_1 + 69 x5_2 + 55 x5_3 + 80 x5_4 + 38 x5_5 + 1 x5_6 + 92 x6_1 + 32 x6_2 + 38 x6_3 + 57 x6_4 + 79 x6_5 + 56 x6_6;

st
x1_1 + x1_2 + x1_3 + x1_4 + x1_5 + x1_6 <= 3642;
x2_1 + x2_2 + x2_3 + x2_4 + x2_5 + x2_6 <= 4058;
x3_1 + x3_2 + x3_3 + x3_4 + x3_5 + x3_6 <= 3259;
x4_1 + x4_2 + x4_3 + x4_4 + x4_5 + x4_6 <= 2114;
x5_1 + x5_2 + x5_3 + x5_4 + x5_5 + x5_6 <= 2733;
x6_1 + x6_2 + x6_3 + x6_4 + x6_5 + x6_6 <= 4276;

x1_1 + x2_1 + x3_1 + x4_1 + x5_1 + x6_1 = 2204;
x1_2 + x2_2 + x3_2 + x4_2 + x5_2 + x6_2 = 4204;
x1_3 + x2_3 + x3_3 + x4_3 + x5_3 + x6_3 = 3475;
x1_4 + x2_4 + x3_4 + x4_4 + x5_4 + x6_4 = 2352;
x1_5 + x2_5 + x3_5 + x4_5 + x5_5 + x6_5 = 725;
x1_6 + x2_6 + x3_6 + x4_6 + x5_6 + x6_6 = 3060;

x1_1 >= 0;
x1_2 >= 0;
x1_3 >= 0;
x1_4 >= 0;
x1_5 >= 0;
x1_6 >= 0;
x2_1 >= 0;
x2_2 >= 0;
x2_3 >= 0;
x2_4 >= 0;
x2_5 >= 0;
x2_6 >= 0;
x3_1 >= 0;
x3_2 >= 0;
x3_3 >= 0;
x3_4 >= 0;
x3_5 >= 0;
x3_6 >= 0;
x4_1 >= 0;
x4_2 >= 0;
x4_3 >= 0;
x4_4 >= 0;
x4_5 >= 0;
x4_6 >= 0;
x5_1 >= 0;
x5_2 >= 0;
x5_3 >= 0;
x5_4 >= 0;
x5_5 >= 0;
x5_6 >= 0;
x6_1 >= 0;
x6_2 >= 0;
x6_3 >= 0;
x6_4 >= 0;
x6_5 >= 0;
x6_6 >= 0;